7050.0
1 0 0 1 0 0 1 1 0 1 0 1 0 1 1 0 1 0 1 1 
12 10 11 5 15 18 16 13 17 17 11 18 6 10 6 15 15 13 14 14 5 11 5 11 12 12 11 16 17 13 16 18 6 14 14 10 10 15 15 16 16 12 13 16 11 5 18 18 15 15 16 17 17 13 13 5 12 14 14 14 11 11 11 11 11 13 16 15 6 6 10 18 6 18 18 18 18 18 18 6 